certificates/rado_a3_c77_N25.cnf
c Rad2 upper bound instance: x1 + 3*x2 - x3 = 77, interval [1,25]
p cnf 25 200
1 3 25 0
-1 -3 -25 0
2 4 25 0
-2 -4 -25 0
3 5 25 0
-3 -5 -25 0
1 6 24 0
-1 -6 -24 0
4 6 25 0
-4 -6 -25 0
2 7 24 0
-2 -7 -24 0
5 7 25 0
-5 -7 -25 0
3 8 24 0
-3 -8 -24 0
6 8 25 0
-6 -8 -25 0
1 9 23 0
-1 -9 -23 0
4 9 24 0
-4 -9 -24 0
7 9 25 0
-7 -9 -25 0
2 10 23 0
-2 -10 -23 0
5 10 24 0
-5 -10 -24 0
8 10 25 0
-8 -10 -25 0
3 11 23 0
-3 -11 -23 0
6 11 24 0
-6 -11 -24 0
9 11 25 0
-9 -11 -25 0
1 12 22 0
-1 -12 -22 0
4 12 23 0
-4 -12 -23 0
7 12 24 0
-7 -12 -24 0
10 12 25 0
-10 -12 -25 0
2 13 22 0
-2 -13 -22 0
5 13 23 0
-5 -13 -23 0
8 13 24 0
-8 -13 -24 0
11 13 25 0
-11 -13 -25 0
3 14 22 0
-3 -14 -22 0
6 14 23 0
-6 -14 -23 0
9 14 24 0
-9 -14 -24 0
12 14 25 0
-12 -14 -25 0
1 15 21 0
-1 -15 -21 0
4 15 22 0
-4 -15 -22 0
7 15 23 0
-7 -15 -23 0
10 15 24 0
-10 -15 -24 0
13 15 25 0
-13 -15 -25 0
2 16 21 0
-2 -16 -21 0
5 16 22 0
-5 -16 -22 0
8 16 23 0
-8 -16 -23 0
11 16 24 0
-11 -16 -24 0
14 16 25 0
-14 -16 -25 0
3 17 21 0
-3 -17 -21 0
6 17 22 0
-6 -17 -22 0
9 17 23 0
-9 -17 -23 0
12 17 24 0
-12 -17 -24 0
15 17 25 0
-15 -17 -25 0
1 18 20 0
-1 -18 -20 0
4 18 21 0
-4 -18 -21 0
7 18 22 0
-7 -18 -22 0
10 18 23 0
-10 -18 -23 0
13 18 24 0
-13 -18 -24 0
16 18 25 0
-16 -18 -25 0
2 19 20 0
-2 -19 -20 0
5 19 21 0
-5 -19 -21 0
8 19 22 0
-8 -19 -22 0
11 19 23 0
-11 -19 -23 0
14 19 24 0
-14 -19 -24 0
17 19 25 0
-17 -19 -25 0
3 20 0
-3 -20 0
6 20 21 0
-6 -20 -21 0
9 20 22 0
-9 -20 -22 0
12 20 23 0
-12 -20 -23 0
15 20 24 0
-15 -20 -24 0
18 20 25 0
-18 -20 -25 0
1 19 21 0
-1 -19 -21 0
4 20 21 0
-4 -20 -21 0
7 21 0
-7 -21 0
10 21 22 0
-10 -21 -22 0
13 21 23 0
-13 -21 -23 0
16 21 24 0
-16 -21 -24 0
19 21 25 0
-19 -21 -25 0
2 19 22 0
-2 -19 -22 0
5 20 22 0
-5 -20 -22 0
8 21 22 0
-8 -21 -22 0
11 22 0
-11 -22 0
14 22 23 0
-14 -22 -23 0
17 22 24 0
-17 -22 -24 0
20 22 25 0
-20 -22 -25 0
3 19 23 0
-3 -19 -23 0
6 20 23 0
-6 -20 -23 0
9 21 23 0
-9 -21 -23 0
12 22 23 0
-12 -22 -23 0
15 23 0
-15 -23 0
18 23 24 0
-18 -23 -24 0
21 23 25 0
-21 -23 -25 0
1 18 24 0
-1 -18 -24 0
4 19 24 0
-4 -19 -24 0
7 20 24 0
-7 -20 -24 0
10 21 24 0
-10 -21 -24 0
13 22 24 0
-13 -22 -24 0
16 23 24 0
-16 -23 -24 0
19 24 0
-19 -24 0
22 24 25 0
-22 -24 -25 0
2 18 25 0
-2 -18 -25 0
5 19 25 0
-5 -19 -25 0
8 20 25 0
-8 -20 -25 0
11 21 25 0
-11 -21 -25 0
14 22 25 0
-14 -22 -25 0
17 23 25 0
-17 -23 -25 0
20 24 25 0
-20 -24 -25 0
23 25 0
-23 -25 0
