certificates/rado_a3_c77_N25.drat
-25 0
23 0
-15 0
13 0
17 0
-5 0
-21 0
-9 0
3 0
7 0
19 0
11 0
1 0
-20 0
0
